files/upTests/___simple/set_Occurrence/0001.eprime.solution
language ESSENCE' 1.0
$ minion Nodes: 1
$ minion TotalTime: 0.000755
$ Savile Row TotalTime: 0.154
letting aux__5 be 9
letting x_SetOccurrence be [false, false, true, false, false, false, false, false, false, true;int(0..9)]
